GLPSOL: GLPK LP/MIP Solver, v4.55
Parameter(s) specified in the command line:
 -m tmp.mod
Reading model section from tmp.mod...
Reading data section from tmp.mod...
2501 lines were read
Generating obj...
Generating kirhoff...
Generating init_charge...
Generating batt_size...
Model has been successfully generated
GLPK Simplex Optimizer, v4.55
2299 rows, 3591 columns, 7650 non-zeros
Preprocessing...
1689 rows, 3430 columns, 7223 non-zeros
Scaling...
 A: min|aij| =  1.000e+00  max|aij| =  1.000e+00  ratio =  1.000e+00
Problem data seem to be well scaled
Constructing initial basis...
Size of triangular part is 1480
      0: obj =   0.000000000e+00  infeas =  9.060e+02 (209)
    500: obj =   3.900000000e+01  infeas =  1.300e+01 (132)
*   521: obj =   4.500000000e+01  infeas =  0.000e+00 (131)
*   629: obj =   2.000000000e+01  infeas =  0.000e+00 (123)
OPTIMAL LP SOLUTION FOUND
Time used:   0.1 secs
Memory used: 7.2 Mb (7498761 bytes)
#OUTPUT:
20
-1 0 -1 0 -58 0 -73 -37 0 -13 -37 -79 0 0 -3 0 0 -28 0 0 -28 4 0 34 0 0 0 0 0 -5 0 0 -15 0 0 0 0 -15 0 -13 0 0 0 0 -32 0 2 0 0 0 0 0 -2 -1 0 0 -36 0 0 0 0 0 0 0 0 0 0 -84 0 0 -1 0 0 -2 0 0 -36 0 0 0 2 0 0 0 0 0 0 0 0 5 0 0 -90 0 0 0 0 0 0 0 0 0 0 0 0 0 0 0 0 0 4 0 0 0 0 0 0 0 0 0 0 -1 0 0 0 0 0 0 0 0 0 0 0 0 0 0 0 0 0 0 -3 -1 0 0 0 0 0 0 0 0 0 0 -2 0 0 0 0 0 -1 -1 1 0 0 -1 0 0 0 -1 0 0 0 0 0 0 0 0 0 0 0 0 0 0 -1 0 0 0 0 0 0 0 0 0 0 0 0 0 0 0 -2 0 0 0 -6 0 0 0 0 -1 0 0 0 0 0 0 0 0 0 0 0 0 1 0 0 0 5 0 0 0 0 -2 0 0 0 1 0 0 0 34 0 0 0 0 0 0 0 0 0 0 0 0 0 0 0 0 0 0 0 2 -1 0 0 0 0 0 0 0 0 -6 0 0 0 0 0 0 0 0 0 0 0 0 0 0 0 0 -23 0 0 0 0 0 0 0 0 0 0 0 0 0 0 -1 0 0 0 0 0 0 0 0 0 2 0 1 0 0 0 0 0 0 0 0 0 0 0 0 0 0 0 0 0 0 -1 0 0 0 0 0 0 0 0 0 0 0 0 0 0 0 12 0 0 0 0 2 0 0 0 0 0 0 0 0 0 0 2 -1 0 0 2 0 0 0 0 0 2 0 0 0 0 0 0 0 0 0 -1 0 -5 0 0 2 0 -7 6 0 -34 0 0 0 0 0 0 4 2 0 0 0 0 0 -3 0 0 0 0 0 0 0 0 0 1 0 0 0 1 -3 0 -1 0 0 0 0 0 0 2 -1 0 0 0 0 0 0 0 -12 0 0 0 0 0 0 0 0 0 0 0 0 0 0 0 0 0 0 0 0 0 0 0 0 0 0 0 0 0 0 0 0 0 0 0 0 0 0 0 0 0 0 0 0 0 0 0 0 0 0 0 
-1 0 1 -1 -11 -1 -78 -4 3 0 -4 -10 4 0 -4 -2 3 -49 0 0 -49 -4 0 -8 3 0 0 1 0 -9 -3 4 -24 -4 0 0 0 -24 0 0 0 0 1 0 -44 0 0 0 0 0 0 0 0 0 0 0 0 0 0 0 0 0 4 -71 1 0 0 -6 0 -6 -8 0 0 0 0 0 -2 0 0 0 0 0 1 4 0 0 0 0 0 -52 4 0 0 0 -2 0 -1 0 0 0 0 0 3 0 0 2 0 0 0 -1 -44 0 0 0 0 0 0 0 0 0 1 0 -1 0 0 0 0 -1 0 -1 0 0 -3 0 0 0 0 0 0 0 -3 -1 0 1 -5 0 0 0 0 0 0 0 0 0 1 0 0 0 0 0 0 0 0 0 0 0 0 0 0 0 3 0 0 0 0 0 0 0 0 0 0 0 0 0 -4 0 0 2 0 0 0 0 0 0 0 0 0 0 0 0 0 0 44 0 0 -2 0 0 0 0 0 0 -5 0 0 0 0 0 0 0 0 0 0 0 -52 -3 0 0 0 0 0 -1 0 0 0 0 0 0 0 0 3 0 0 0 4 0 0 0 0 0 0 0 0 0 0 0 2 0 0 0 0 0 0 0 0 0 0 44 0 0 0 0 0 -1 0 0 0 0 1 0 0 0 1 0 3 0 0 0 0 0 0 0 0 0 0 -1 0 0 2 2 0 4 2 0 0 -1 0 0 0 0 0 4 0 0 0 0 0 0 0 0 0 0 0 1 0 0 0 0 0 0 3 0 0 0 0 0 0 2 0 0 0 -4 0 0 0 0 0 0 0 0 -7 7 0 0 -1 0 0 0 1 4 -2 1 0 -4 0 0 0 0 3 -2 0 0 0 0 0 0 0 0 1 -1 5 0 0 0 -10 0 1 0 0 -3 3 0 0 0 0 0 -4 0 0 -44 0 0 0 0 1 0 0 -1 0 0 0 0 0 0 1 -2 -2 -4 -2 1 0 0 -3 -1 0 0 0 0 -1 0 -6 3 0 -2 0 4 0 0 0 0 0 0 0 0 0 0 0 0 0 0 0 0 0 0 0 0 0 0 0 0 0 0 0 0 0 0 0 0 0 0 0 0 0 0 0 0 0 0 0 0 0 0 0 0 0 0 0 0 0 0 0 
0 0 0 0 0 0 0 0 0 0 0 0 0 0 0 0 0 0 0 0 0 0 0 0 0 0 0 0 0 0 0 0 0 0 0 0 0 0 0 0 0 0 0 0 0 0 0 0 0 0 0 0 0 0 0 0 0 0 0 0 0 0 0 0 0 0 0 0 0 0 0 0 0 0 0 0 0 0 0 0 0 0 0 0 0 0 0 0 0 0 0 0 0 0 0 0 0 0 0 0 0 0 0 0 0 0 0 0 0 0 0 0 0 0 0 0 0 0 0 0 0 0 0 0 0 0 0 0 0 0 0 0 0 0 0 0 0 0 0 0 0 0 0 0 0 0 0 0 0 0 0 0 0 0 0 0 0 0 0 0 0 0 0 0 0 0 0 0 0 0 0 0 0 0 0 0 0 0 0 0 0 0 0 0 0 0 0 0 0 0 0 0 0 0 0 0 0 0 0 0 0 0 0 0 0 0 0 0 0 0 0 0 0 0 0 0 0 0 0 0 0 0 0 0 0 0 0 0 0 0 0 0 0 0 0 0 0 0 0 0 0 0 0 0 0 0 0 0 0 0 0 0 0 0 0 0 0 0 0 0 0 0 0 0 0 0 0 0 0 0 0 0 0 0 0 0 0 0 0 0 0 0 0 0 0 0 0 0 0 0 0 0 0 0 0 0 0 0 0 0 0 0 0 0 0 0 0 0 0 0 0 0 0 0 0 0 0 0 0 0 0 0 0 0 0 0 0 0 0 0 0 0 0 0 0 0 0 0 0 0 0 0 0 0 0 0 0 0 0 0 0 0 0 0 0 0 0 0 0 0 0 0 0 0 0 0 0 0 0 0 0 0 0 0 0 0 0 0 0 0 0 0 0 0 0 0 0 0 0 0 0 0 0 0 0 0 0 0 0 0 0 0 0 0 0 0 0 0 0 0 0 0 0 0 0 0 0 0 0 0 0 0 0 0 0 0 0 0 0 0 0 0 0 0 0 0 0 0 0 0 0 0 0 0 0 0 0 0 0 0 0 0 0 0 0 0 0 0 0 0 0 0 0 0 0 0 0 0 0 0 0 0 0 0 0 0 0 0 0 0 0 0 0 0 0 0 0 0 0 0 0 
#OUTPUT END
Model has been successfully processed
